N=5;
T=25;
V=[
9 
9 
9 
9 
9
];
B=10000.0;
bh=16.0;
bl=1.0;
R=1.5;
E=3;

qh=[
[30 30 30 30 30 30 30 30 30]
[30 30 30 30 30 30 30 30 30]
[30 30 30 30 30 30 30 30 30]
[30 30 30 30 30 30 30 30 30]
[30 30 30 30 30 30 30 30 30]
];

ql=[
[20 20 20 20 20 20 20 20 20]
[20 20 20 20 20 20 20 20 20]
[20 20 20 20 20 20 20 20 20]
[20 20 20 20 20 20 20 20 20]
[20 20 20 20 20 20 20 20 20]
];
